p cnf 10 50
5 -8 -7 0
-1 -7 10 0
-4 -8 -9 0
3 -9 6 0
-7 -5 -2 0
6 -5 -9 0
-9 4 -5 0
6 -2 -9 0
2 10 -4 0
-9 7 4 0
8 1 2 0
-10 8 7 0
9 1 -2 0
-5 2 -7 0
-2 -8 -6 0
-5 1 6 0
1 4 6 0
-8 -7 2 0
4 -9 6 0
8 3 1 0
-9 -8 10 0
-6 7 -9 0
7 5 -10 0
3 5 -4 0
-6 2 9 0
-3 5 -8 0
9 -2 -10 0
-4 -2 -3 0
-1 -3 5 0
-5 7 6 0
3 -4 7 0
3 -2 10 0
-8 -1 -10 0
7 -3 -1 0
2 -5 6 0
5 -1 3 0
-5 7 -2 0
8 -9 -10 0
7 3 10 0
6 -8 7 0
2 -9 -1 0
-10 7 -1 0
8 1 4 0
-1 -4 -6 0
7 10 2 0
6 -9 -5 0
10 7 3 0
1 -2 -3 0
1 -3 -8 0
-8 1 -4 0